1000 100
307 412
360 217
25 329
72 276
496 126
253 351
363 121
107 324
408 71
412 263
375 112
418 241
290 438
28 129
8 390
60 34
318 351
282 159
2 188
446 159
463 5
12 151
149 436
374 462
104 65
308 451
239 337
104 80
199 219
78 205
410 448
294 477
435 346
52 107
65 40
401 199
268 318
155 93
50 434
83 113
323 358
178 178
336 60
361 20
78 436
52 468
143 34
442 263
185 425
459 305
41 95
423 446
107 456
474 20
307 318
147 284
354 41
91 484
493 305
348 141
452 3
480 36
462 6
415 305
457 119
47 160
348 70
187 22
423 340
196 415
13 157
43 275
465 444
225 91
58 40
315 26
230 339
117 230
413 113
448 369
482 445
373 204
422 246
145 346
233 219
76 106
383 108
417 478
187 438
285 392
244 65
25 419
195 373
84 331
55 231
241 58
475 238
436 85
58 125
421 127
